Minimize
  5 x_calcium_pills + 6 x_vitamin_D_pills
Subject To
  c1: x_calcium_pills + x_vitamin_D_pills >= 130
  c2: x_vitamin_D_pills >= 40
  c3: x_calcium_pills - x_vitamin_D_pills >= 0
Integer
  x_calcium_pills x_vitamin_D_pills
End